benchmarks/bfuzz0/2605020135203301479932354276162093930341.smt2
(set-logic QF_FP)
(declare-const x0 (_ FloatingPoint 11 53))
(declare-const x1 (_ FloatingPoint 11 53))
(declare-const x2 (_ FloatingPoint 11 53))
(declare-const x3 (_ FloatingPoint 11 53))
(declare-const x4 (_ FloatingPoint 11 53))
(declare-const x5 (_ FloatingPoint 11 53))
(declare-const x6 (_ FloatingPoint 11 53))
(declare-const x7 (_ FloatingPoint 11 53))
(declare-const x8 (_ FloatingPoint 11 53))
(declare-const x9 (_ FloatingPoint 11 53))
(declare-const x10 (_ FloatingPoint 11 53))
(declare-const x11 (_ FloatingPoint 11 53))
(declare-const x12 (_ FloatingPoint 11 53))
(declare-const x13 (_ FloatingPoint 11 53))
(assert (fp.gt (fp.add RNE (fp.mul RNE (fp.mul RNE x5 x12) (fp.div RNE x11 x13)) (fp.div RNE (fp.div RNE x10 x1) (fp.sub RNE x9 x4))) (fp.neg (fp.div RNE (fp.sub RNE x12 x7) (fp.sub RNE x1 x4)))))
(assert (fp.eq (fp.add RNE (fp.add RNE (fp.sub RNE x4 x7) (fp.add RNE x9 x8)) (fp.sub RNE (fp.div RNE x0 x12) (fp.add RNE x13 x12))) (fp.mul RNE (fp.neg (fp.neg x3)) (fp.mul RNE (fp.div RNE x12 x5) (fp.neg x7)))))
(assert (fp.lt (fp.neg (fp.mul RNE (fp.add RNE x0 x5) (fp.neg x8))) (fp.sub RNE (fp.div RNE (fp.add RNE x1 x5) (fp.add RNE x3 x8)) (fp.sub RNE (fp.add RNE x13 x13) (fp.add RNE x7 x8)))))
(assert (fp.lt (fp.div RNE (fp.neg (fp.div RNE x9 x8)) (fp.neg (fp.neg x7))) (fp.add RNE (fp.mul RNE (fp.sub RNE x8 x2) (fp.sub RNE x13 x13)) (fp.div RNE (fp.mul RNE x3 x12) (fp.mul RNE x11 x5)))))
(assert (fp.gt (fp.sub RNE (fp.mul RNE (fp.mul RNE x7 x12) (fp.mul RNE x13 x0)) (fp.mul RNE (fp.sub RNE x5 x0) (fp.add RNE x10 x1))) (fp.div RNE (fp.add RNE (fp.div RNE x6 x3) (fp.mul RNE x4 x13)) (fp.neg (fp.sub RNE x1 x11)))))
(check-sat)
