db/data/2605020135203301479932354276162093930341.z3.out
-------------------
2500.406440716
